p edge 38 266
e 1 4
e 1 18
e 1 23
e 1 26
e 1 27
e 1 28
e 1 30
e 2 8
e 2 11
e 2 11
e 2 15
e 2 19
e 2 21
e 2 33
e 3 1
e 3 9
e 3 13
e 3 18
e 3 27
e 3 28
e 3 38
e 4 1
e 4 10
e 4 18
e 4 32
e 4 33
e 4 34
e 4 35
e 5 2
e 5 9
e 5 12
e 5 18
e 5 23
e 5 27
e 5 35
e 6 4
e 6 13
e 6 21
e 6 22
e 6 27
e 6 30
e 6 35
e 7 3
e 7 9
e 7 18
e 7 18
e 7 19
e 7 28
e 7 36
e 8 12
e 8 13
e 8 14
e 8 24
e 8 26
e 8 36
e 8 37
e 9 16
e 9 23
e 9 24
e 9 24
e 9 30
e 9 34
e 9 34
e 10 14
e 10 19
e 10 20
e 10 22
e 10 33
e 10 35
e 10 36
e 11 1
e 11 13
e 11 23
e 11 28
e 11 32
e 11 34
e 11 37
e 12 5
e 12 9
e 12 18
e 12 20
e 12 22
e 12 32
e 12 38
e 13 1
e 13 1
e 13 10
e 13 19
e 13 24
e 13 29
e 13 32
e 14 10
e 14 16
e 14 20
e 14 21
e 14 27
e 14 32
e 14 35
e 15 9
e 15 11
e 15 13
e 15 17
e 15 20
e 15 29
e 15 34
e 16 4
e 16 5
e 16 17
e 16 19
e 16 19
e 16 22
e 16 28
e 17 5
e 17 6
e 17 12
e 17 20
e 17 27
e 17 35
e 17 38
e 18 2
e 18 3
e 18 9
e 18 12
e 18 19
e 18 36
e 18 36
e 19 3
e 19 6
e 19 7
e 19 10
e 19 13
e 19 23
e 19 25
e 20 2
e 20 4
e 20 16
e 20 17
e 20 33
e 20 34
e 20 34
e 21 5
e 21 20
e 21 22
e 21 23
e 21 25
e 21 35
e 21 38
e 22 5
e 22 8
e 22 20
e 22 24
e 22 27
e 22 36
e 22 37
e 23 1
e 23 9
e 23 16
e 23 21
e 23 21
e 23 34
e 23 35
e 24 6
e 24 8
e 24 15
e 24 18
e 24 27
e 24 34
e 24 35
e 25 1
e 25 4
e 25 9
e 25 14
e 25 28
e 25 34
e 25 37
e 26 5
e 26 7
e 26 9
e 26 10
e 26 25
e 26 27
e 26 29
e 27 3
e 27 4
e 27 14
e 27 16
e 27 22
e 27 28
e 27 29
e 28 4
e 28 5
e 28 10
e 28 11
e 28 17
e 28 30
e 28 31
e 29 2
e 29 5
e 29 6
e 29 10
e 29 16
e 29 26
e 29 33
e 30 7
e 30 15
e 30 15
e 30 16
e 30 20
e 30 21
e 30 34
e 31 4
e 31 6
e 31 10
e 31 16
e 31 19
e 31 25
e 31 30
e 32 5
e 32 8
e 32 13
e 32 23
e 32 26
e 32 34
e 32 36
e 33 6
e 33 10
e 33 10
e 33 15
e 33 16
e 33 17
e 33 18
e 34 29
e 34 30
e 34 30
e 34 31
e 34 33
e 34 35
e 34 38
e 35 3
e 35 4
e 35 6
e 35 17
e 35 32
e 35 36
e 35 38
e 36 6
e 36 10
e 36 14
e 36 15
e 36 19
e 36 22
e 36 29
e 37 1
e 37 17
e 37 26
e 37 27
e 37 28
e 37 31
e 37 34
e 38 6
e 38 6
e 38 14
e 38 30
e 38 32
e 38 37
e 38 37
